NAME : sample_45
COMMENT : Sample TSP instance with 45 cities
TYPE : TSP
DIMENSION : 45
EDGE_WEIGHT_TYPE : EUC_2D
NODE_COORD_SECTION
1 268 539
2 907 473
3 290 987
4 345 480
5 318 278
6 736 830
7 659 973
8 588 343
9 904 552
10 680 808
11 643 268
12 570 892
13 897 218
14 277 383
15 300 71
16 85 246
17 666 35
18 57 485
19 632 595
20 257 938
21 534 401
22 426 951
23 611 757
24 267 312
25 177 917
26 980 980
27 362 993
28 371 47
29 155 202
30 426 61
31 704 159
32 315 945
33 458 754
34 150 685
35 640 259
36 796 290
37 631 715
38 891 180
39 591 884
40 15 215
41 553 875
42 772 352
43 390 24
44 52 817
45 28 752
EOF
